NAME : XML100_3321_26
DIMENSION : 101
NB_CLUSTERS : 4
CLUSTERING_ALG : KMeans
CLUSTERING_PARAMS : k(3)
CLUSTERS
1 0
2 7 10 18 20 21 24 25 26 30 31 48 50 53 62 74 77 78 84 90 92 97
3 1 3 4 5 6 8 11 12 13 14 15 16 17 22 23 28 33 35 36 37 39 42 43 44 45 46 47 49 52 55 56 57 59 61 63 64 65 67 68 69 71 73 75 79 81 82 83 89 91 94 96 99 100
4 2 9 19 27 29 32 34 38 40 41 51 54 58 60 66 70 72 76 80 85 86 87 88 93 95 98
EOF